c RoundingSat 2
c branch HEAD
c commit c548e10
c #variables 32 #constraints 299
c #Conflicts:       1000 | #Constraints:       1298
c #Conflicts:       2000 | #Constraints:       2298
c INPROCESSING
c GARBAGE COLLECT
c #Conflicts:       3000 | #Constraints:       2304
c #Conflicts:       4000 | #Constraints:       3304
c INPROCESSING
c GARBAGE COLLECT
c #Conflicts:       5000 | #Constraints:       2709
c #Conflicts:       6000 | #Constraints:       3709
c INPROCESSING
c GARBAGE COLLECT
c #Conflicts:       7000 | #Constraints:       2072
c #Conflicts:       8000 | #Constraints:       3072
c cpu time 0.156444 s
c deterministic time 17047069 1.70e+07
c optimization time 6e-06 s
c total solve time 0.155577 s
c core-guided solve time 0 s
c propagation time 0.102547 s
c conflict analysis time 0.040895 s
c propagations 101605
c resolve steps 35651
c decisions 10773
c conflicts 8639
c restarts 36
c inprocessing phases 3
c input clauses 298
c input cardinalities 1
c input general constraints 0
c input average constraint length 10.22
c input average constraint degree 1.07
c learned clauses 5976
c learned cardinalities 905
c learned general constraints 1757
c learned average constraint length 10.95
c learned average constraint degree 3.04
c watched constraints 724
c counting constraints 1033
c gcd simplifications 235
c detected cardinalities 307
c weakened non-implied lits 46933
c weakened non-implying lits 56
c original variables 32
c clausal propagations 22456
c cardinality propagations 44299
c watched propagations 1686
c counting propagations 21850
c watch lookups 6278095
c watch backjump lookups 3562503
c watch checks 5665557
c propagation checks 824932
c constraint additions 482612
c trail pops 120991
c formula constraints 299
c learned constraints 8638
c bound constraints 0
c core-guided constraints 0
c encountered formula constraints 15609
c encountered learned constraints 28681
c encountered bound constraints 0
c encountered core-guided constraints 0
c LP total time 0 s
c LP solve time 0 s
c LP constraints added 0
c LP constraints removed 0
c LP pivots internal 0
c LP pivots root 0
c LP calls 0
c LP optimalities 0
c LP no pivot count 0
c LP infeasibilities 0
c LP valid Farkas constraints 0
c LP learned Farkas constraints 0
c LP basis resets 0
c LP cycling count 0
c LP singular count 0
c LP no primal count 0
c LP no farkas count 0
c LP other issue count 0
c LP Gomory cuts 0
c LP learned cuts 0
c LP deleted cuts 0
c LP encountered Gomory constraints 0
c LP encountered Farkas constraints 0
c LP encountered learned Farkas constraints 0
c CG auxiliary variables introduced 0
c CG solutions found 0
c CG cores constructed 0
c CG core cardinality constraints returned 0
c CG unit cores 0
c CG single cores 0
c CG blocks removed during cardinality reduction 0
c CG first core best 0
c CG decision core best 0
c CG core reduction tie 0
c CG core degree average 0.00
c CG core slack average 0.00
s UNSATISFIABLE
